nohup: ignoring input
miplib2017_binary_open-small
symmetric
./result/miplib2017/miplib2017_purebinary_open.txt
original problem has 2048 variables (2048 bin, 0 int, 0 impl, 0 cont) and 504451 constraints
sorrell4


miplib2017_binary_open-105
Number of variables 2048
Number of binary variables 2048
* Model status: sollimit
* Solving time: 3.344598
* number of sol :  1
* Model status: nodelimit
* Solving time: 962.166138
* number of sol :  1
wrote problem to file /home/liudefen/projects/ML4LocalBranch_extend/data/generated_instances/miplib2017_binary_open/-small/transformedmodel/miplib2017_binary_open-105_transformed.mps
original problem has 2048 variables (2048 bin, 0 int, 0 impl, 0 cont) and 504451 constraints
0.0
0.0
original problem has 2048 variables (2048 bin, 0 int, 0 impl, 0 cont) and 78848 constraints
sorrell7


miplib2017_binary_open-106
Number of variables 2048
Number of binary variables 2048
* Model status: sollimit
* Solving time: 1.479929
* number of sol :  1
* Model status: nodelimit
* Solving time: 157.838693
* number of sol :  1
wrote problem to file /home/liudefen/projects/ML4LocalBranch_extend/data/generated_instances/miplib2017_binary_open/-small/transformedmodel/miplib2017_binary_open-106_transformed.mps
original problem has 2048 variables (2048 bin, 0 int, 0 impl, 0 cont) and 78848 constraints
0.0
0.0
original problem has 2187 variables (2187 bin, 0 int, 0 impl, 0 cont) and 2187 constraints
ramos3


miplib2017_binary_open-107
Number of variables 2187
Number of binary variables 2187
* Model status: sollimit
* Solving time: 0.050165999999999995
* number of sol :  1
* Model status: sollimit
* Solving time: 0.031557
* number of sol :  2
wrote problem to file /home/liudefen/projects/ML4LocalBranch_extend/data/generated_instances/miplib2017_binary_open/-small/transformedmodel/miplib2017_binary_open-107_transformed.mps
original problem has 2187 variables (2187 bin, 0 int, 0 impl, 0 cont) and 2187 constraints
242.0
242.0
original problem has 2700 variables (2700 bin, 0 int, 0 impl, 0 cont) and 42620 constraints
circ10-3


miplib2017_binary_open-108
Number of variables 2700
Number of binary variables 2700
* Model status: timelimit
* Solving time: 7200.006177
* number of sol :  0
* Model status: timelimit
* Solving time: 7200.001279
* number of sol :  0
original problem has 2912 variables (2912 bin, 0 int, 0 impl, 0 cont) and 597385 constraints
supportcase2


miplib2017_binary_open-108
Number of variables 2912
Number of binary variables 2912
* Model status: timelimit
* Solving time: 7200.01871
* number of sol :  0
* Model status: timelimit
* Solving time: 7200.146368
* number of sol :  0
original problem has 4000 variables (4000 bin, 0 int, 0 impl, 0 cont) and 10500 constraints
f2000


miplib2017_binary_open-108
Number of variables 4000
Number of binary variables 4000
* Model status: timelimit
* Solving time: 7200.002596
* number of sol :  0
* Model status: timelimit
* Solving time: 7200.001741
* number of sol :  0
original problem has 4000 variables (4000 bin, 0 int, 0 impl, 0 cont) and 1502 constraints
d20200


miplib2017_binary_open-108
Number of variables 4000
Number of binary variables 4000
* Model status: sollimit
* Solving time: 43.27749
* number of sol :  1
* Model status: sollimit
* Solving time: 7.801818
* number of sol :  2
wrote problem to file /home/liudefen/projects/ML4LocalBranch_extend/data/generated_instances/miplib2017_binary_open/-small/transformedmodel/miplib2017_binary_open-108_transformed.mps
original problem has 4000 variables (3181 bin, 819 int, 0 impl, 0 cont) and 1722 constraints
12653.0
12653.0
original problem has 11811 variables (11811 bin, 0 int, 0 impl, 0 cont) and 14478 constraints
cdc7-4-3-2


miplib2017_binary_open-109
Number of variables 11811
Number of binary variables 11811
* Model status: sollimit
* Solving time: 0.736217
* number of sol :  1
* Model status: sollimit
* Solving time: 0.303873
* number of sol :  2
wrote problem to file /home/liudefen/projects/ML4LocalBranch_extend/data/generated_instances/miplib2017_binary_open/-small/transformedmodel/miplib2017_binary_open-109_transformed.mps
original problem has 11811 variables (11811 bin, 0 int, 0 impl, 0 cont) and 14478 constraints
-77.0
-77.0
original problem has 12292 variables (12292 bin, 0 int, 0 impl, 0 cont) and 97389 constraints
rmine11


miplib2017_binary_open-110
Number of variables 12292
Number of binary variables 12292
* Model status: sollimit
* Solving time: 0.309649
* number of sol :  1
* Model status: sollimit
* Solving time: 0.461433
* number of sol :  2
wrote problem to file /home/liudefen/projects/ML4LocalBranch_extend/data/generated_instances/miplib2017_binary_open/-small/transformedmodel/miplib2017_binary_open-110_transformed.mps
original problem has 12292 variables (12292 bin, 0 int, 0 impl, 0 cont) and 97389 constraints
-511.46989699999983
-511.46989699999983
original problem has 13226 variables (13215 bin, 0 int, 0 impl, 11 cont) and 2589 constraints
core2586-950


miplib2017_binary_open-111
Number of variables 13226
Number of binary variables 13215
* Model status: sollimit
* Solving time: 19.508815
* number of sol :  1
* Model status: sollimit
* Solving time: 0.204349
* number of sol :  2
wrote problem to file /home/liudefen/projects/ML4LocalBranch_extend/data/generated_instances/miplib2017_binary_open/-small/transformedmodel/miplib2017_binary_open-111_transformed.mps
original problem has 13226 variables (13179 bin, 36 int, 0 impl, 11 cont) and 2495 constraints
1237.0
1237.0
original problem has 17937 variables (17937 bin, 0 int, 0 impl, 0 cont) and 850513 constraints
z26


miplib2017_binary_open-112
Number of variables 17937
Number of binary variables 17937
* Model status: sollimit
* Solving time: 12.978582
* number of sol :  1
* Model status: nodelimit
* Solving time: 349.076815
* number of sol :  58
wrote problem to file /home/liudefen/projects/ML4LocalBranch_extend/data/generated_instances/miplib2017_binary_open/-small/transformedmodel/miplib2017_binary_open-112_transformed.mps
original problem has 17937 variables (17937 bin, 0 int, 0 impl, 0 cont) and 850513 constraints
-122.0
-122.0
original problem has 21714 variables (21705 bin, 0 int, 0 impl, 9 cont) and 4287 constraints
core4284-1064


miplib2017_binary_open-113
Number of variables 21714
Number of binary variables 21705
* Model status: sollimit
* Solving time: 56.093248
* number of sol :  1
* Model status: sollimit
* Solving time: 0.479068
* number of sol :  2
wrote problem to file /home/liudefen/projects/ML4LocalBranch_extend/data/generated_instances/miplib2017_binary_open/-small/transformedmodel/miplib2017_binary_open-113_transformed.mps
original problem has 21714 variables (21691 bin, 14 int, 0 impl, 9 cont) and 4226 constraints
1414.0
1414.0
original problem has 23980 variables (23980 bin, 0 int, 0 impl, 0 cont) and 197155 constraints
rmine13


miplib2017_binary_open-114
Number of variables 23980
Number of binary variables 23980
* Model status: sollimit
* Solving time: 0.719124
* number of sol :  1
* Model status: sollimit
* Solving time: 1.110341
* number of sol :  2
wrote problem to file /home/liudefen/projects/ML4LocalBranch_extend/data/generated_instances/miplib2017_binary_open/-small/transformedmodel/miplib2017_binary_open-114_transformed.mps
original problem has 23980 variables (23980 bin, 0 int, 0 impl, 0 cont) and 197155 constraints
-611.5367500000006
-611.5367500000006
original problem has 24656 variables (24645 bin, 0 int, 0 impl, 11 cont) and 4875 constraints
core4872-1529


miplib2017_binary_open-115
Number of variables 24656
Number of binary variables 24645
* Model status: sollimit
* Solving time: 66.460354
* number of sol :  1
* Model status: sollimit
* Solving time: 0.5086229999999999
* number of sol :  2
wrote problem to file /home/liudefen/projects/ML4LocalBranch_extend/data/generated_instances/miplib2017_binary_open/-small/transformedmodel/miplib2017_binary_open-115_transformed.mps
original problem has 24656 variables (24594 bin, 51 int, 0 impl, 11 cont) and 4696 constraints
1989.0
1989.0
original problem has 25124 variables (25124 bin, 0 int, 0 impl, 0 cont) and 1320 constraints
pb-grow22


miplib2017_binary_open-116
Number of variables 25124
Number of binary variables 25124
* Model status: sollimit
* Solving time: 1.213111
* number of sol :  1
* Model status: timelimit
* Solving time: 7200.002934
* number of sol :  1
wrote problem to file /home/liudefen/projects/ML4LocalBranch_extend/data/generated_instances/miplib2017_binary_open/-small/transformedmodel/miplib2017_binary_open-116_transformed.mps
original problem has 25124 variables (25124 bin, 0 int, 0 impl, 0 cont) and 1320 constraints
0.0
0.0
original problem has 25200 variables (25200 bin, 0 int, 0 impl, 0 cont) and 1468 constraints
ex1010-pi


miplib2017_binary_open-117
Number of variables 25200
Number of binary variables 25200
* Model status: sollimit
* Solving time: 1.078089
* number of sol :  1
* Model status: nodelimit
* Solving time: 53.144533
* number of sol :  2
wrote problem to file /home/liudefen/projects/ML4LocalBranch_extend/data/generated_instances/miplib2017_binary_open/-small/transformedmodel/miplib2017_binary_open-117_transformed.mps
original problem has 25200 variables (25200 bin, 0 int, 0 impl, 0 cont) and 1468 constraints
1047.0
1047.0
original problem has 27275 variables (27275 bin, 0 int, 0 impl, 0 cont) and 81725 constraints
ns1828997


miplib2017_binary_open-118
Number of variables 27275
Number of binary variables 27275
* Model status: sollimit
* Solving time: 0.495886
* number of sol :  1
* Model status: sollimit
* Solving time: 410.495731
* number of sol :  2
wrote problem to file /home/liudefen/projects/ML4LocalBranch_extend/data/generated_instances/miplib2017_binary_open/-small/transformedmodel/miplib2017_binary_open-118_transformed.mps
original problem has 27275 variables (27250 bin, 25 int, 0 impl, 0 cont) and 81350 constraints
100.0
100.0
original problem has 27888 variables (27888 bin, 0 int, 0 impl, 0 cont) and 874 constraints
pb-gfrd-pnc


miplib2017_binary_open-119
Number of variables 27888
Number of binary variables 27888
* Model status: timelimit
* Solving time: 7200.001042
* number of sol :  0
* Model status: timelimit
* Solving time: 7200.001395
* number of sol :  0
original problem has 31243 variables (31243 bin, 0 int, 0 impl, 0 cont) and 99067 constraints
graph40-20-1rand


miplib2017_binary_open-119
Number of variables 31243
Number of binary variables 31243
* Model status: sollimit
* Solving time: 10.266417
* number of sol :  1
* Model status: timelimit
* Solving time: 7200.008251
* number of sol :  1
wrote problem to file /home/liudefen/projects/ML4LocalBranch_extend/data/generated_instances/miplib2017_binary_open/-small/transformedmodel/miplib2017_binary_open-119_transformed.mps
original problem has 31243 variables (31086 bin, 157 int, 0 impl, 0 cont) and 95770 constraints
0.0
0.0
original problem has 36630 variables (36630 bin, 0 int, 0 impl, 0 cont) and 338 constraints
t1722


miplib2017_binary_open-120
Number of variables 36630
Number of binary variables 36630
* Model status: sollimit
* Solving time: 300.953038
* number of sol :  1
* Model status: sollimit
* Solving time: 352.105854
* number of sol :  2
wrote problem to file /home/liudefen/projects/ML4LocalBranch_extend/data/generated_instances/miplib2017_binary_open/-small/transformedmodel/miplib2017_binary_open-120_transformed.mps
original problem has 36630 variables (36630 bin, 0 int, 0 impl, 0 cont) and 515 constraints
210320.0
210320.0
original problem has 42438 variables (42438 bin, 0 int, 0 impl, 0 cont) and 358395 constraints
rmine15


miplib2017_binary_open-121
Number of variables 42438
Number of binary variables 42438
* Model status: sollimit
* Solving time: 1.3599809999999999
* number of sol :  1
* Model status: sollimit
* Solving time: 2.004237
* number of sol :  2
wrote problem to file /home/liudefen/projects/ML4LocalBranch_extend/data/generated_instances/miplib2017_binary_open/-small/transformedmodel/miplib2017_binary_open-121_transformed.mps
original problem has 42438 variables (42438 bin, 0 int, 0 impl, 0 cont) and 358395 constraints
-759.289522
-759.289522
original problem has 73885 variables (73885 bin, 0 int, 0 impl, 0 cont) and 551 constraints
t1717


miplib2017_binary_open-122
Number of variables 73885
Number of binary variables 73885
* Model status: sollimit
* Solving time: 1660.524486
* number of sol :  2
* Model status: sollimit
* Solving time: 2074.679923
* number of sol :  2
wrote problem to file /home/liudefen/projects/ML4LocalBranch_extend/data/generated_instances/miplib2017_binary_open/-small/transformedmodel/miplib2017_binary_open-122_transformed.mps
original problem has 73885 variables (73885 bin, 0 int, 0 impl, 0 cont) and 1755 constraints
568646.0
568646.0
original problem has 99947 variables (99947 bin, 0 int, 0 impl, 0 cont) and 1000 constraints
scpj4scip


miplib2017_binary_open-123
Number of variables 99947
Number of binary variables 99947
* Model status: sollimit
* Solving time: 1.157519
* number of sol :  1
* Model status: sollimit
* Solving time: 2.054616
* number of sol :  2
wrote problem to file /home/liudefen/projects/ML4LocalBranch_extend/data/generated_instances/miplib2017_binary_open/-small/transformedmodel/miplib2017_binary_open-123_transformed.mps
original problem has 99947 variables (99947 bin, 0 int, 0 impl, 0 cont) and 1000 constraints
2942.0
2942.0
original problem has 100000 variables (100000 bin, 0 int, 0 impl, 0 cont) and 2000 constraints
scpk4


miplib2017_binary_open-124
Number of variables 100000
Number of binary variables 100000
* Model status: sollimit
* Solving time: 1.105295
* number of sol :  1
* Model status: sollimit
* Solving time: 2.1981479999999998
* number of sol :  2
wrote problem to file /home/liudefen/projects/ML4LocalBranch_extend/data/generated_instances/miplib2017_binary_open/-small/transformedmodel/miplib2017_binary_open-124_transformed.mps
original problem has 100000 variables (100000 bin, 0 int, 0 impl, 0 cont) and 2000 constraints
6742.0
6742.0
original problem has 102600 variables (102600 bin, 0 int, 0 impl, 0 cont) and 360900 constraints
graph40-40-1rand


miplib2017_binary_open-125
Number of variables 102600
Number of binary variables 102600
* Model status: sollimit
* Solving time: 67.051451
* number of sol :  1
* Model status: timelimit
* Solving time: 7200.022887
* number of sol :  1
wrote problem to file /home/liudefen/projects/ML4LocalBranch_extend/data/generated_instances/miplib2017_binary_open/-small/transformedmodel/miplib2017_binary_open-125_transformed.mps
original problem has 102600 variables (102300 bin, 300 int, 0 impl, 0 cont) and 351600 constraints
0.0
0.0
original problem has 162547 variables (162547 bin, 0 int, 0 impl, 0 cont) and 1441651 constraints
rmine21


miplib2017_binary_open-126
Number of variables 162547
Number of binary variables 162547
* Model status: sollimit
* Solving time: 6.327952
* number of sol :  1
* Model status: sollimit
* Solving time: 9.374856
* number of sol :  2
wrote problem to file /home/liudefen/projects/ML4LocalBranch_extend/data/generated_instances/miplib2017_binary_open/-small/transformedmodel/miplib2017_binary_open-126_transformed.mps
original problem has 162547 variables (162547 bin, 0 int, 0 impl, 0 cont) and 1441651 constraints
-1592.8118630000006
-1592.8118630000006
original problem has 169996 variables (169996 bin, 0 int, 0 impl, 0 cont) and 7694 constraints
neos-4531126-vouga


miplib2017_binary_open-127
Number of variables 169996
Number of binary variables 169996
* Model status: timelimit
* Solving time: 7200.031715
* number of sol :  0
* Model status: timelimit
* Solving time: 7200.031239
* number of sol :  0
original problem has 174997 variables (174997 bin, 0 int, 0 impl, 0 cont) and 1042 constraints
ds-big


miplib2017_binary_open-127
Number of variables 174997
Number of binary variables 174997
* Model status: sollimit
* Solving time: 10.51906
* number of sol :  1
* Model status: timelimit
* Solving time: 7200.028667
* number of sol :  1
wrote problem to file /home/liudefen/projects/ML4LocalBranch_extend/data/generated_instances/miplib2017_binary_open/-small/transformedmodel/miplib2017_binary_open-127_transformed.mps
original problem has 174997 variables (174997 bin, 0 int, 0 impl, 0 cont) and 1042 constraints
2240.2837465999996
2240.2837465999996
original problem has 200000 variables (200000 bin, 0 int, 0 impl, 0 cont) and 2000 constraints
scpl4


miplib2017_binary_open-128
Number of variables 200000
Number of binary variables 200000
* Model status: sollimit
* Solving time: 2.788044
* number of sol :  1
* Model status: sollimit
* Solving time: 5.030777
* number of sol :  2
wrote problem to file /home/liudefen/projects/ML4LocalBranch_extend/data/generated_instances/miplib2017_binary_open/-small/transformedmodel/miplib2017_binary_open-128_transformed.mps
original problem has 200000 variables (200000 bin, 0 int, 0 impl, 0 cont) and 2000 constraints
6747.0
6747.0
original problem has 200787 variables (200787 bin, 0 int, 0 impl, 0 cont) and 22117 constraints
a2864-99blp


miplib2017_binary_open-129
Number of variables 200787
Number of binary variables 200787
* Model status: sollimit
* Solving time: 60.010711
* number of sol :  1
* Model status: sollimit
* Solving time: 36.393437
* number of sol :  2
wrote problem to file /home/liudefen/projects/ML4LocalBranch_extend/data/generated_instances/miplib2017_binary_open/-small/transformedmodel/miplib2017_binary_open-129_transformed.mps
original problem has 200787 variables (13824 bin, 186963 int, 0 impl, 0 cont) and 20893 constraints
-50.0
-50.0
original problem has 283648 variables (283648 bin, 0 int, 0 impl, 0 cont) and 1050112 constraints
graph40-80-1rand


miplib2017_binary_open-130
Number of variables 283648
Number of binary variables 283648
* Model status: sollimit
* Solving time: 118.272207
* number of sol :  1
* Model status: timelimit
* Solving time: 7200.543744
* number of sol :  1
wrote problem to file /home/liudefen/projects/ML4LocalBranch_extend/data/generated_instances/miplib2017_binary_open/-small/transformedmodel/miplib2017_binary_open-130_transformed.mps
original problem has 283648 variables (283136 bin, 512 int, 0 impl, 0 cont) and 1025024 constraints
0.0
0.0
original problem has 326599 variables (326599 bin, 0 int, 0 impl, 0 cont) and 2953849 constraints
rmine25


miplib2017_binary_open-131
Number of variables 326599
Number of binary variables 326599
* Model status: sollimit
* Solving time: 14.391944
* number of sol :  1
* Model status: sollimit
* Solving time: 22.631151
* number of sol :  2
wrote problem to file /home/liudefen/projects/ML4LocalBranch_extend/data/generated_instances/miplib2017_binary_open/-small/transformedmodel/miplib2017_binary_open-131_transformed.mps
original problem has 326599 variables (326599 bin, 0 int, 0 impl, 0 cont) and 2953849 constraints
-2098.4231009999967
-2098.4231009999967
original problem has 348921 variables (348920 bin, 0 int, 0 impl, 1 cont) and 661133 constraints
mining


miplib2017_binary_open-132
Number of variables 348921
Number of binary variables 348920
* Model status: sollimit
* Solving time: 9.483478
* number of sol :  1
* Model status: sollimit
* Solving time: 42.298647
* number of sol :  2
wrote problem to file /home/liudefen/projects/ML4LocalBranch_extend/data/generated_instances/miplib2017_binary_open/-small/transformedmodel/miplib2017_binary_open-132_transformed.mps
original problem has 348921 variables (348920 bin, 0 int, 0 impl, 1 cont) and 661132 constraints
531134254.8354133
531134254.8354133
original problem has 393800 variables (393800 bin, 0 int, 0 impl, 0 cont) and 23069 constraints
bab3


miplib2017_binary_open-133
Number of variables 393800
Number of binary variables 393800
* Model status: timelimit
* Solving time: 7200.178191
* number of sol :  0
* Model status: timelimit
* Solving time: 7200.200165
* number of sol :  0
original problem has 500000 variables (500000 bin, 0 int, 0 impl, 0 cont) and 5000 constraints
scpm1


miplib2017_binary_open-133
Number of variables 500000
Number of binary variables 500000
* Model status: sollimit
* Solving time: 9.765258
* number of sol :  1
* Model status: sollimit
* Solving time: 18.558737999999998
* number of sol :  2
wrote problem to file /home/liudefen/projects/ML4LocalBranch_extend/data/generated_instances/miplib2017_binary_open/-small/transformedmodel/miplib2017_binary_open-133_transformed.mps
original problem has 500000 variables (500000 bin, 0 int, 0 impl, 0 cont) and 5000 constraints
14440.0
14440.0
original problem has 2277736 variables (2277736 bin, 0 int, 0 impl, 0 cont) and 1177 constraints
ivu06-big


miplib2017_binary_open-134
Number of variables 2277736
Number of binary variables 2277736
* Model status: sollimit
* Solving time: 75.113261
* number of sol :  1
* Model status: timelimit
* Solving time: 7200.145608
* number of sol :  1
wrote problem to file /home/liudefen/projects/ML4LocalBranch_extend/data/generated_instances/miplib2017_binary_open/-small/transformedmodel/miplib2017_binary_open-134_transformed.mps
original problem has 2277736 variables (2277736 bin, 0 int, 0 impl, 0 cont) and 1177 constraints
283.93900281400005
283.93900281400005
original problem has 787239 variables (787239 bin, 0 int, 0 impl, 0 cont) and 1177 constraints
ivu06


miplib2017_binary_open-135
Number of variables 787239
Number of binary variables 787239
* Model status: sollimit
* Solving time: 21.109721
* number of sol :  1
* Model status: timelimit
* Solving time: 7205.66043
* number of sol :  1
wrote problem to file /home/liudefen/projects/ML4LocalBranch_extend/data/generated_instances/miplib2017_binary_open/-small/transformedmodel/miplib2017_binary_open-135_transformed.mps
original problem has 787239 variables (787239 bin, 0 int, 0 impl, 0 cont) and 1177 constraints
286.619333735
286.619333735
original problem has 1000000 variables (1000000 bin, 0 int, 0 impl, 0 cont) and 5000 constraints
scpn2


miplib2017_binary_open-136
Number of variables 1000000
Number of binary variables 1000000
* Model status: sollimit
* Solving time: 20.427699
* number of sol :  1
* Model status: sollimit
* Solving time: 38.634465
* number of sol :  2
wrote problem to file /home/liudefen/projects/ML4LocalBranch_extend/data/generated_instances/miplib2017_binary_open/-small/transformedmodel/miplib2017_binary_open-136_transformed.mps
original problem has 1000000 variables (1000000 bin, 0 int, 0 impl, 0 cont) and 5000 constraints
13146.0
13146.0
original problem has 1001000 variables (1001000 bin, 0 int, 0 impl, 0 cont) and 2000 constraints
neos-3322547-alsek


miplib2017_binary_open-137
Number of variables 1001000
Number of binary variables 1001000
* Model status: sollimit
* Solving time: 11.137746
* number of sol :  1
* Model status: sollimit
* Solving time: 9.874086
* number of sol :  2
wrote problem to file /home/liudefen/projects/ML4LocalBranch_extend/data/generated_instances/miplib2017_binary_open/-small/transformedmodel/miplib2017_binary_open-137_transformed.mps
original problem has 1001000 variables (1001000 bin, 0 int, 0 impl, 0 cont) and 2000 constraints
422.0
422.0
original problem has 2569996 variables (2569996 bin, 0 int, 0 impl, 0 cont) and 3436 constraints
ivu59


miplib2017_binary_open-138
Number of variables 2569996
Number of binary variables 2569996
* Model status: sollimit
* Solving time: 102.269871
* number of sol :  1
* Model status: timelimit
* Solving time: 7200.15135
* number of sol :  1
wrote problem to file /home/liudefen/projects/ML4LocalBranch_extend/data/generated_instances/miplib2017_binary_open/-small/transformedmodel/miplib2017_binary_open-138_transformed.mps
original problem has 2569996 variables (2569996 bin, 0 int, 0 impl, 0 cont) and 3436 constraints
3632.2882947999988
3632.2882947999988
miplib2017_binary_open-large
symmetric
